Pt      O       H      Ne
 1.000000
   11.2201004028000000    0.0000000000000000    0.0000000000000000
   -5.6100502014000000    9.7168919818999999    0.0000000000000000
    0.0000000000000000    0.0000000000000000   40.0000000000000000
      Pt      O       H      Ne
      48      42      85     16
Cartesian
    1.5323853810000001    1.2088786290000000    0.9999600000000000
    4.3374100330000003    1.2088786290000000    0.9999600000000000
    7.1424351330000002    1.2088786290000000    0.9999600000000000
    9.9474602340000011    1.2088786290000000    0.9999600000000000
    0.1298727180000001    3.6381016239999999    0.9999600000000000
    2.9348975950000002    3.6381016239999999    0.9999600000000000
    5.7399224709999999    3.6381016239999999    0.9999600000000000
    8.5449475719999999    3.6381016239999999    0.9999600000000000
   -1.2726397199999999    6.0673246200000008    0.9999600000000000
    1.5323851560000001    6.0673246200000008    0.9999600000000000
    4.3374100330000003    6.0673246200000008    0.9999600000000000
    7.1424351330000011    6.0673246200000008    0.9999600000000000
   -2.6751521020000006    8.4965477120000017    0.9999600000000000
    0.1298727739999999    8.4965477120000017    0.9999600000000000
    2.9348978749999999    8.4965477120000017    0.9999600000000000
    5.7399229759999990    8.4965477120000017    0.9999600000000000
    4.3373537080000002    2.8283930150000001    3.2904300780000000
    2.9348416460000002    0.3991699520000000    3.2904300780000000
    7.1423788090000002    2.8283930150000001    3.2904300780000000
   -1.2726960340000000    2.8283930150000001    3.2904300780000000
    8.5448913980000025    0.3991699520000000    3.2904300780000000
    0.1298165060000001    5.2576160109999996    3.2904300780000000
    2.9348413820000006    5.2576160109999996    3.2904300780000000
    5.7398662580000028    5.2576160109999996    3.2904300780000000
    0.1298165450000000    0.3991699520000000    3.2904300780000000
   -2.6752085499999998    5.2576160109999996    3.2904300780000000
   -1.2726957640000003    7.6868391030000005    3.2904300780000000
    1.5323291120000002    7.6868391030000005    3.2904300780000000
    1.5323290560000002    2.8283930150000001    3.2904300780000000
    4.3373542130000011    7.6868391030000005    3.2904300780000000
    5.7398667459999997    0.3991699520000000    3.2904300780000000
   -4.0777206410000000    7.6868391030000005    3.2904300780000000
    8.4279587270000000    1.9684173629999999    5.4755612990000007
    4.2771689640000012    9.2648272709999997    5.5067258849999998
    2.8607599509999995    1.9084446410000000    5.5627761659999999
    1.5051330170000004    9.2362054409999992    5.5741522779999997
   -1.2036802619999998    9.3247369439999996    5.5887742800000009
    1.5828989620000002    4.4397614540000001    5.6529062480000007
    2.8375520200000000    6.7725351290000004    5.6662446300000004
    0.0960395169999999    1.9547313340000001    5.6734539490000007
   -4.0597534760000000    9.3069035940000013    5.6741356330000006
   -2.6638290429999998    6.8319171530000009    5.6921121689999996
    5.6816505230000010    2.0939672210000002    5.7077121070000008
    4.3808888120000002    4.4673839759999998    5.7098447400000012
   -1.2899558010000003    4.4893906780000004    5.7446532520000009
    7.0059821689999993    4.4343250000000003    5.7617502910000002
    5.6177845779999993    6.7749602510000013    5.8320555279999997
    0.0454982249999998    6.8446324990000003    5.8980849010000007
    4.9525241350000000    8.9265513379999994    8.4951210310000000
    8.2624669740000023    0.3379991110000001    8.7065347430000006
    4.2615093890000004    3.4412115100000000    8.8511257010000008
    0.3684786139999998    8.6150255710000003    8.8541301120000000
    1.0519517160000000    1.2563881939999999    9.0010593020000016
    2.0226676499999998    4.1945477389999999    9.2555802499999995
    6.2224460609999994    5.0413060559999998    9.3699268650000000
    2.0269960470000004    6.7965021330000006    9.7832437169999995
    3.5188936329999998    0.5353725710000000   10.2403045650000006
    4.7321562470000016    7.1686078650000002   10.4469507220000004
    8.7887486760000009    1.4476808230000000   11.3120957410000003
   -3.0004670820000001    7.2426493740000000   11.5503034420000006
    0.2459508189999999    0.9797648320000001   11.6009911410000015
    1.3229890559999999    3.3575796379999998   11.7134010889999995
    7.8259742380000006    3.9504138410000005   11.7179408499999997
   -0.8200766209999997    5.0715726830000003   12.4620618360000002
    1.9861343459999996    6.4483829890000006   12.5330600459999992
    5.2092495690000007    1.0735074309999999   12.7508634349999994
    4.6201674920000011    6.2194189340000010   12.9727537410000000
    2.0074508940000007    9.3508370589999998   13.0436678840000013
    5.3752313829999991    3.5757202250000004   13.1438379260000016
    1.5544156160000004    1.6251998870000000   14.1503647050000012
   -2.8187803659999999    7.3250934020000011   14.2553298470000023
    3.7712824060000005    0.1384156490000000   14.7182583020000024
   -2.0244906420000000    4.6847713930000001   14.7204578460000022
    5.9841129490000000    7.2356463820000005   15.1215606680000025
    0.9035984400000001    6.2406751290000013   15.1573472450000004
    8.6552546000000010    0.4802541550000000   15.1894177209999999
    7.1869722840000003    3.2441999780000002   15.4250204680000014
    4.1547958940000003    3.9023327680000004   15.5228444289999992
    0.3156094480000000    3.5659471859999998   15.5645948969999992
    5.5893591360000006    9.6876706489999993   15.8561645190000000
    0.1339910719999997    8.3476410120000004   16.7553420150000001
    5.0750314459999997    5.8601039139999997   17.1496575679999985
   -2.2104911770000006    9.5157273430000000   17.5929177559999985
    2.5726127020000003    6.0920066210000012   17.6171159830000015
    3.5913807609999999    2.3996553569999999   17.7355706399999988
   -0.3459797120000000    2.1618678029999998   17.7854083320000029
    2.2956143520000003    8.9405899259999995   17.8390291450000014
    6.1775844680000009    3.2208368970000003   18.0649779839999987
    1.4623630590000003    3.9380612140000006   18.8633797640000012
    8.3797857850000010    1.6379788910000002   19.2232711129999991
    4.0854653540000001    2.9428431829999999    7.9864433710000000
    0.1636560329999996    8.1478222640000002    8.0032810629999993
    8.3865307490000003    1.1220792520000000    8.1264516110000002
    0.9345444000000003    1.8777922860000000    8.2150491179999996
    5.6106464489999990    9.6500392799999997    8.4984230309999997
    1.0972285179999997    9.2409164829999995    8.5805987209999994
    3.5529924860000008    9.5075899049999997    8.6037049660000005
    6.9237144809999993    5.0660235269999996    8.6868984190000003
    5.0335942500000002    4.0195086939999998    8.7152297220000001
    2.0095513829999998    1.0457227910000000    8.9711431489999995
    3.1109692570000007    3.7955602680000000    9.1344979810000009
    5.1333991829999999    8.3460143440000003    9.2937733510000005
    1.4646231680000001    7.5364901180000006    9.4198822740000008
    2.0818903410000003    5.2072206760000004    9.5308482489999999
    4.4149241320000012    0.3118316990000000    9.8185709879999994
    5.2848703850000005    6.4771152780000003    9.9634857659999998
    2.8946130999999999    7.1906619589999998    9.9759112450000007
    1.7684167999999998    3.7540250700000004   10.1254882790000007
    6.6353203990000011    4.6926688980000000   10.1959689769999997
    8.5668296440000002    1.2050712900000000   10.3528325060000004
    0.3932465559999999    0.7980264160000000   10.6579326920000010
   -3.2257613590000003    6.6594981879999997   10.7564165730000010
    3.8758971710000001    0.9963733280000001   10.9775352430000002
   -2.7250645859999993    8.0779360510000000   11.1178120090000014
    4.8871196969999993    6.8693329480000012   11.4076259400000009
    0.8788942490000000    2.5329543409999999   11.4096711250000009
    1.8925238969999998    6.4898545580000011   11.5089382689999997
   10.4599728180000007    1.0460213000000000   11.5967418179999999
    8.2003522009999994    3.0055685219999999   11.6625473180000014
   -0.6424978989999999    5.8255414610000003   11.8683209479999991
    8.2921593610000013    0.8577038520000000   11.9406851580000009
    0.5388735250000001    3.8923699040000006   12.0609936930000021
   -1.6707926529999999    4.6840551430000001   12.1809141660000009
    7.0397363320000004    3.8168692709999998   12.2803980110000026
    6.0938764820000006    0.7031718060000001   12.6059099099999994
    2.9620996900000005    6.3540231169999997   12.7665121380000013
    1.9848001740000001    8.3631399959999992   12.8302012910000016
    5.1808722669999989    2.6007903240000005   12.9523887050000024
    5.0256113459999998    5.2830860790000012   12.9828866510000012
    1.1931504239999999    1.3155799090000002   13.2622903010000019
   -2.7734078640000002    7.3381098790000010   13.2763844820000010
    4.8785087290000000    0.5283291220000000   13.4887552430000017
    5.0531748109999999    6.7076359260000000   13.7304816720000016
    5.9024155690000013    3.5723109480000006   13.9165995250000023
    2.4661303120000007    9.4628886390000009   13.9519103419999997
   -1.4256544480000004    4.9700350340000004   13.9746072480000016
    1.0715793340000004    6.4161929430000013   14.1719944830000006
    2.4712861059999995    1.2791401940000002   14.4767032720000000
   -2.1086691069999994    8.9054215790000004   14.5111051490000005
    4.2584905959999997    4.1895817490000002   14.5606904810000000
   -2.4127128469999999    6.4508369139999999   14.5677845280000007
    6.9383288949999988    7.1518263060000002   14.8195755660000010
    0.4253750290000000    0.4789921920000000   15.1395211440000015
   -1.2710699040000000    4.1764786940000000   15.1439160039999994
    7.9767904440000006    3.7824874310000003   15.1751874149999999
    0.9713663399999999    2.8991181159999999   15.2278054160000025
    0.7496058680000002    5.2260233420000013   15.2620004819999995
    9.6850149509999994    0.2687735950000000   15.3007195800000027
    7.6191123019999996    2.3354610999999998   15.3736982090000023
    5.9275113569999993    8.7666777269999994   15.7130870159999994
    3.8572153480000000    0.1518895730000000   15.7476316450000020
    5.7573830689999994    6.6530752809999996   15.9549021780000011
    8.3510589000000000    0.0601223090000000   16.0077758350000039
    4.4453444790000001    4.6104039669999999   16.1112792630000001
    0.2758592200000001    7.5296582090000008   16.2537117420000001
   -0.0194067079999998    3.2799839309999999   16.4247710580000046
    2.0062829940000002    5.9547304700000012   16.8039184890000044
    3.6206687349999997    2.7687054940000007   16.8082926770000007
   -0.7910621419999995    8.4932959429999997   17.0230771889999986
    6.5825834050000003    3.2500018449999999   17.1143946500000013
   -0.0822590430000000    1.3644566880000000   17.2098373940000045
    1.3332986399999989    8.7643464519999998   17.3134787580000022
    4.0453003079999998    6.0302282370000011   17.4347447350000024
   -3.1488692590000009    9.2126572780000000   17.6421435510000002
    3.3410211850000002    0.8347157600000001   17.7357035359999990
    5.5254211280000005    5.3288699530000008   17.8279314179999986
    4.5206510809999987    2.7553931850000000   17.9553643520000001
    2.5793202250000000    8.1125224050000000   18.2589969650000015
    2.2207301949999994    5.3900127940000013   18.2686161809999987
   10.0843933710000009    1.9106839490000000   18.2928194220000009
    0.7520701899999997    3.3257084010000000   18.4871014369999997
    6.7268730019999996    2.4826630370000000   18.5156568680000007
    2.3114701420000006    3.4219729620000003   18.7429844209999992
    8.2192548050000003    0.6873553340000000   19.0681890030000005
    8.6787746030000026    1.8630263570000001   20.1224781280000009
    1.5323853810000001    1.2088786290000000   22.0000000000000000
    4.3374100330000003    1.2088786290000000   22.0000000000000000
    7.1424351330000002    1.2088786290000000   22.0000000000000000
    9.9474602340000011    1.2088786290000000   22.0000000000000000
    0.1298727180000001    3.6381016239999999   22.0000000000000000
    2.9348975950000002    3.6381016239999999   22.0000000000000000
    5.7399224709999999    3.6381016239999999   22.0000000000000000
    8.5449475719999999    3.6381016239999999   22.0000000000000000
   -1.2726397199999999    6.0673246200000008   22.0000000000000000
    1.5323851560000001    6.0673246200000008   22.0000000000000000
    4.3374100330000003    6.0673246200000008   22.0000000000000000
    7.1424351330000011    6.0673246200000008   22.0000000000000000
   -2.6751521020000006    8.4965477120000017   22.0000000000000000
    0.1298727739999999    8.4965477120000017   22.0000000000000000
    2.9348978749999999    8.4965477120000017   22.0000000000000000
    5.7399229759999990    8.4965477120000017   22.0000000000000000