INPUT_PARAMETERS
pseudo_dir          /path/to/pseudo_dir
orbital_dir         /path/to/orbital_dir
nbands              80
calculation         driver
symmetry            0

basis_type          lcao
ecutwfc             100
bz                  2
scf_thr             1e-5
scf_ene_thr         1e-5
scf_nmax            100
smearing_method     gauss
smearing_sigma      0.01
mixing_type         broyden
mixing_beta         0.20
mixing_ndim         8
mixing_gg0          1.0

imp_sol             0

efield_flag         1
dip_cor_flag        1
efield_dir          1
efield_pos_max      0.8
efield_pos_dec      0.1
efield_amp          0

gate_flag           1
zgate               0.4
block               1
block_down          0.4
block_up            0.5
block_height        0.10

ipi_mode            inet
ipi_host            localhost
ipi_port            19003
