ATOMIC_SPECIES
Al  26.9815385  Al.PD04.PBE.UPF

NUMERICAL_ORBITAL
Al_gga_10au_100Ry_3s3p2d.orb

LATTICE_CONSTANT
1.889726

LATTICE_VECTORS
9.920400000000  0.000000000000  0.000000000000
0.000000000000  20.00000000000  0.000000000000
0.000000000000  0.000000000000  8.591300000000

ATOMIC_POSITIONS
Cartesian

Al
0.000
36
0.826666932000  1.000000000000  1.431911971000  0 0 0  mag 0.0
3.306766932000  1.000000000000  0.000000000000  0 0 0  mag 0.0
5.786866932000  1.000000000000  1.431911971000  0 0 0  mag 0.0
8.266966932000  1.000000000000  0.000000000000  0 0 0  mag 0.0
0.826666932000  1.000000000000  4.295650000000  0 0 0  mag 0.0
3.306766932000  1.000000000000  2.863738029000  0 0 0  mag 0.0
5.786866932000  1.000000000000  4.295650000000  0 0 0  mag 0.0
8.266966932000  1.000000000000  2.863738029000  0 0 0  mag 0.0
0.826666932000  1.000000000000  7.159388029000  0 0 0  mag 0.0
3.306766932000  1.000000000000  5.727561971000  0 0 0  mag 0.0
5.786866932000  1.000000000000  7.159388029000  0 0 0  mag 0.0
8.266966932000  1.000000000000  5.727561971000  0 0 0  mag 0.0
1.653433068000  3.338200000000  2.863738029000  0 0 0  mag 0.0
4.133533068000  3.338200000000  1.431911971000  0 0 0  mag 0.0
4.133533068000  3.338200000000  4.295650000000  0 0 0  mag 0.0
1.653433068000  3.338200000000  0.000000000000  0 0 0  mag 0.0
6.613633068000  3.338200000000  2.863738029000  0 0 0  mag 0.0
9.093733068000  3.338200000000  4.295650000000  0 0 0  mag 0.0
6.613633068000  3.338200000000  0.000000000000  0 0 0  mag 0.0
1.653433068000  3.338200000000  5.727561971000  0 0 0  mag 0.0
4.133533068000  3.338200000000  7.159388029000  0 0 0  mag 0.0
6.613633068000  3.338200000000  5.727561971000  0 0 0  mag 0.0
9.093733068000  3.338200000000  1.431911971000  0 0 0  mag 0.0
9.093733068000  3.338200000000  7.159388029000  0 0 0  mag 0.0
0.000000000000  5.676600000000  5.727561971000  1 1 1  mag 0.0
0.000000000000  5.676600000000  2.863738029000  1 1 1  mag 0.0
0.000000000000  5.676600000000  0.000000000000  1 1 1  mag 0.0
2.480100000000  5.676600000000  7.159388029000  1 1 1  mag 0.0
4.960200000000  5.676600000000  0.000000000000  1 1 1  mag 0.0
7.440300000000  5.676600000000  1.431911971000  1 1 1  mag 0.0
4.960200000000  5.676600000000  5.727561971000  1 1 1  mag 0.0
7.440300000000  5.676600000000  4.295650000000  1 1 1  mag 0.0
2.480100000000  5.676600000000  4.295650000000  1 1 1  mag 0.0
7.440300000000  5.676600000000  7.159388029000  1 1 1  mag 0.0
4.960200000000  5.676600000000  2.863738029000  1 1 1  mag 0.0
2.480100000000  5.676600000000  1.431911971000  1 1 1  mag 0.0
