graphite-NiN4-H2O-COOH                  
   1.00000000000000     
    14.7600002288999992    0.0000000000000000    0.0000000000000000
    -7.3800001143999996   12.7825351581000000    0.0000000000000000
     0.0000000000000000    0.0000000000000000   30.0000000000000000
   C    N    Ni   O    H 
    67     4     1    46    89
Direct
  0.0543121421194021  0.0065084862378513  0.0832621668113793
  0.1098423610799155  0.1180012504016702  0.0825798806737535
  0.2241359263538222  0.0108891314341132  0.0813613453828643
  0.2795391757949666  0.1225705649096502  0.0810494452602213
  0.3928223258000945  0.0153968802455089  0.0810227778074470
  0.4490539031682776  0.1278941020089499  0.0815655574066992
  0.5568352640336957  0.0110836171512693  0.0821495143704233
  0.6132020509748566  0.1229436384509537  0.0834908149659106
  0.7224632043885503  0.0066187247906739  0.0843421149054263
  0.7783333469832019  0.1181422845791928  0.0851126951266140
  0.8879721094556436  0.0057213517748292  0.0848119035196334
  0.9437090670033544  0.1172150126431684  0.0846770819528873
  0.0549857609480767  0.1738962658789642  0.0831850169030462
  0.1101861013302175  0.2849357982596530  0.0815898453535259
  0.2208515482688112  0.1749105893934462  0.0808045481456254
  0.2750053229262524  0.2855609541062140  0.0787142453771043
  0.3916612653201900  0.1830689555805454  0.0804260686726567
  0.5616988771725350  0.1834613245612072  0.0830995544589615
  0.7241294955994744  0.1750859351379687  0.0846206797859977
  0.7806541735126372  0.2858645066964291  0.0843584288485621
  0.8891839538398669  0.1739444919439753  0.0851002183617831
  0.9450515720505732  0.2850358561131476  0.0842423525381809
  0.0559558878715679  0.3416049788888714  0.0822383737587170
  0.1114272560632392  0.4525011644390499  0.0805701597010500
  0.2203548846961986  0.3416272100307413  0.0789057610014040
  0.2756387679637731  0.4522313749612115  0.0773415895149748
  0.3852910190115947  0.3409893462746451  0.0774604232429077
  0.4408961760054912  0.4524543601829204  0.0775315305306154
  0.7260862763463325  0.3414542009848570  0.0836684416952340
  0.7819212367379820  0.4528199254317870  0.0828026297447290
  0.8915389395273997  0.3418147368968018  0.0841174072545688
  0.9468631070035511  0.4524469652618860  0.0828119379337850
  0.0571860369492258  0.5091492202300467  0.0814615005720083
  0.1122728782424673  0.6201588313282340  0.0804372948865510
  0.2222118982084711  0.5089890599712342  0.0782338470814961
  0.2780494797369905  0.6200101982819785  0.0783365642838008
  0.3863508321086551  0.5081478039423498  0.0771768711747976
  0.4429417785429425  0.6189291851083781  0.0786856082003942
  0.6055448114760104  0.6109245687105107  0.0813319133471399
  0.7755539693942450  0.6111266650468306  0.0827611311853169
  0.8920868368557487  0.5083869669867416  0.0822032242026133
  0.9461586983826805  0.6191246019257923  0.0816519689109952
  0.0572736619172157  0.6759788595964690  0.0809082247437880
  0.1125469697818435  0.7873245325542445  0.0807920678878480
  0.2235092583089419  0.6767052283491104  0.0792818020343078
  0.2792712415984391  0.7881662867002448  0.0794587117899274
  0.3888611927327955  0.6758832778443377  0.0785991864401888
  0.4447973088343455  0.7873528536991150  0.0796150377670365
  0.5538699428295348  0.6712745928742507  0.0808051251681832
  0.6103250548735262  0.7830585425751909  0.0819356857536856
  0.7181315667884075  0.6663288459663799  0.0825062299090656
  0.7744326274736343  0.7788148045832803  0.0833617690659202
  0.8875841837679541  0.6715219394465549  0.0825076398884552
  0.9428956161402923  0.7832697751940741  0.0827321761463555
  0.0555149250109004  0.8411717162414536  0.0819252195769889
  0.1113689044632472  0.9528554104134827  0.0822110533407372
  0.2242305494263082  0.8445765807161036  0.0801111809515084
  0.2803377311028065  0.9567132255643179  0.0806162691071501
  0.3906458618011900  0.8446853992486894  0.0797844042325962
  0.4464133892826637  0.9565782630632409  0.0809417914267513
  0.5556258828891792  0.8410275418516567  0.0810666282893653
  0.6115621824478417  0.9529112391601522  0.0824296045559516
  0.7207163515552137  0.8374280135980897  0.0835254694536040
  0.7766094786163636  0.9492743280951307  0.0845722564329143
  0.8868056245636499  0.8375234426203018  0.0836232821909002
  0.9428056806611019  0.9492726848948596  0.0841158699582380
  0.5636175167617216  0.4043084097378529  0.1554634691305873
  0.4414839363960520  0.2905259304647163  0.0781592310778180
  0.6192556988275550  0.2910683028865337  0.0834984854126049
  0.5475836727132246  0.5030500646211150  0.0796901276903591
  0.7256880366157658  0.5033694786003550  0.0826392940216811
  0.5827080360205831  0.3969224622542638  0.0880228704471704
  0.4760916703641111  0.3628385222499607  0.1722228343760422
  0.6465748558409726  0.4662123281011321  0.1809585308026719
  0.2525110107252097  0.4932607442333565  0.1782637847208638
  0.4136467967261508  0.6866240165692170  0.1947409407880765
  0.0729142170981214  0.6695353321619694  0.1979288655764754
  0.8480612402155896  0.5653054146333549  0.1827575816518724
  0.8799660376748866  0.4288109409442540  0.2294322925147939
  0.2383065246017154  0.8603767024680613  0.1856255156155294
  0.4359170466501835  0.9908179704878205  0.2143851148667663
  0.2754504261292905  0.1910533019247498  0.2005130052274574
  0.5834457162877429  0.1905705917759663  0.1856239853726818
  0.5361865337745914  0.8989635093014186  0.1854132235949351
  0.9479549222381847  0.9362516735826468  0.2062604899638267
  0.0728007548427550  0.1524702650671237  0.2049262420158093
  0.3968473041993684  0.4582012082418117  0.2303917778802121
  0.0848351344280009  0.4841103677022779  0.2166698407322396
  0.1450550945414784  0.9738996661971621  0.2140969884512701
  0.7637504498815474  0.2208480625236422  0.2153094660709738
  0.7917109905968835  0.7318040679496226  0.1899428106697612
  0.5799133085597763  0.6593883901006001  0.2182527526619130
  0.6309074573451884  0.8543343077762968  0.2525051438901275
  0.9650795341982362  0.2592625401870912  0.2053641775807218
  0.3844773415066097  0.2175345568972740  0.2758769010141346
  0.0318262667758713  0.7357512011977024  0.2765559938984051
  0.5076445332521495  0.8592285134956403  0.3166225343283409
  0.3781801774740381  0.6667815803606925  0.2857431487113978
  0.2526886313764461  0.3781801565936896  0.2997058286260155
  0.3056238795249318  0.0324765469328648  0.3192288102194980
  0.6841026922954851  0.4985455319610859  0.2740160163850809
  0.8733306730168464  0.5443531462773458  0.2993507459076892
  0.1008550982904920  0.1735962426648407  0.2966471367696855
  0.2372675019034698  0.8336408255727424  0.2920186240227683
  0.4851764257385014  0.0278004449741502  0.3024246626895191
  0.5924436123340612  0.2889649649353221  0.2657772693525212
  0.7843668411673468  0.8398946803289669  0.3388977432034382
  0.9662860069165345  0.8354109580108858  0.3363040601399919
  0.9073558671132186  0.1702666454811934  0.2903085059860935
  0.8321568507551217  0.9690187115645686  0.2674519265445067
  0.4789071892995009  0.6081106605165071  0.3499585876232863
  0.6897806443977090  0.1817873350501571  0.2985987628550137
  0.6717556522818678  0.6288044790907690  0.3338033772593288
  0.1250991180783370  0.0264201965892904  0.3491189385790724
  0.1711723641269025  0.5132878615919612  0.2952167652892462
  0.5939320474389399  0.7956485917383854  0.3812471164436456
  0.3985265623047126  0.3492825926350585  0.3414610393243058
  0.8546335555763216  0.6466740614712082  0.3768601912774741
  0.7172271602287149  0.4977016541396297  0.1665531951151128
  0.3055075710942670  0.5690931141785126  0.1776398764922937
  0.8329523918947240  0.3519828775468846  0.2244241478458253
  0.2411087049419899  0.8656162283455267  0.1531336805637850
  0.8542365548510246  0.5110842337860694  0.2008142823997277
  0.9209146739323503  0.6116685359155113  0.1735443004776933
  0.0503070442582925  0.6890326677031303  0.2259362877176072
  0.4479045730940260  0.7620633341947435  0.1871440059155386
  0.3604634602892479  0.9405743831726046  0.2082381489020549
  0.5238279642354341  0.1198538281970501  0.1920919853599189
  0.3146961315626171  0.2046776072749289  0.2295412648637255
  0.9519003290915128  0.4440556240368501  0.2219960925949291
  0.2890917492273636  0.4654556532153302  0.1962829442491407
  0.4009124254502198  0.6820208899279420  0.2276508014146025
  0.1751999161798562  0.9301966569529561  0.2047485801357027
  0.5842578275979767  0.2335147049035407  0.2113021271471063
  0.1842027832250588  0.7851346494377714  0.1917999256366951
  0.3299205982372962  0.2341198159612828  0.1789856024982475
  0.8179224517246023  0.2112921492335970  0.2005216433180320
  0.0824667656662675  0.6090781319227901  0.2051090701259577
  0.4988501194822113  0.9372085455466344  0.1963014293425186
  0.1445813465874643  0.4875709802006234  0.1987348691488370
  0.1965941374145090  0.0459757020341817  0.2052147587669411
  0.6994303353403254  0.2005818332298415  0.1966728586779458
  0.5273012937865279  0.6654215108235229  0.1997214240047592
  0.4458485334050779  0.0004526335660345  0.2473713420720225
  0.7169959826678921  0.7023337804827952  0.1977270111364348
  0.8083881149288834  0.6758417303852896  0.1941725288848640
  0.0156363487442141  0.9367660197001731  0.2104086331851737
  0.4600838938542788  0.5282249512099978  0.2336589009831063
  0.0105512809630494  0.2285380960162192  0.1997476131490836
  0.1460603001022084  0.1712786857680784  0.1979589957208842
  0.4222098654127063  0.4173363512539590  0.2139793770323200
  0.0268413413334758  0.0781422360196441  0.1966528713408064
  0.3876834053623899  0.2658379999665585  0.3004024189787871
  0.2973770356534174  0.3991342669549723  0.2726214798631534
  0.8937069107172052  0.8640814824710534  0.1975332376333657
  0.5687611609326249  0.9300612200037432  0.1569776990344270
  0.6077036386632467  0.8778963004411049  0.2260172532182627
  0.1143396652508518  0.4944990291691626  0.2485235155688404
  0.0113349611116859  0.3360549556655873  0.2074254781694651
  0.9354490616050566  0.6138874750981171  0.2916912743923823
  0.7606692575083536  0.5232026064929268  0.2807030687707151
  0.2622219570079570  0.9083740286740213  0.3002989559030260
  0.3300650238183676  0.0962556852528033  0.3001028926410011
  0.0051415960354157  0.7796954376934147  0.2897636088689855
  0.7087539022925058  0.9028762973717346  0.2555448754481318
  0.6028797811761555  0.7219295498613807  0.2376846296053096
  0.5576353694565781  0.0879139267553609  0.3055262558867414
  0.6778306324827170  0.5097713503489050  0.2421985939079678
  0.5597732553519945  0.8667661452356979  0.2931404989671491
  0.4145180329749929  0.7403925013212278  0.2974236731440411
  0.1990444153835352  0.3021112341934699  0.2970315317803396
  0.0889341793810852  0.1533787913835103  0.2646272178094397
  0.6273083659009809  0.3666002334321321  0.2705411532035937
  0.4596936851899827  0.2397065434950983  0.2706920069745271
  0.4975540020087374  0.9208323742579476  0.3138685412929267
  0.1072791229531029  0.7699084274617553  0.2860268221482264
  0.4094837580896743  0.6340550912591623  0.3045751972237846
  0.7210377059906389  0.1870618326266936  0.2683280683800549
  0.9037388808619700  0.8453630381068078  0.3358440420874506
  0.9271988179690218  0.2092693793447296  0.2616010330381245
  0.0650037243069705  0.9514117690774433  0.3461625510533249
  0.8808013273347161  0.4929758658975817  0.2806874951062004
  0.7965716272070491  0.8846495567724318  0.3120943885988250
  0.4344454715524429  0.0410415429063052  0.3185447991955230
  0.2443222630217621  0.0277465349229093  0.3351689956109880
  0.1090074859056232  0.1195287964334606  0.3129668860359345
  0.6308406706717782  0.2636269820175706  0.2841282982749188
  0.2645343040492414  0.8066343963734738  0.3147407930707375
  0.4312392479733412  0.5613763877594676  0.3726262312306985
  0.8601030588469180  0.0449634350607825  0.2750372811210148
  0.9745189268949944  0.1800875375568458  0.3017549936214802
  0.7434425405868250  0.1882870074225313  0.3194167376472256
  0.1897661468365067  0.4578882628338337  0.2996996330209290
  0.1235535711922477  0.0457889863898453  0.3800119056027975
  0.6691344648402550  0.5826240686245096  0.3090310182409201
  0.8817912878650880  0.9623932595382185  0.2467619037096968
  0.9389974640789456  0.7704863030406296  0.3551623517007449
  0.5217527099518222  0.6809341091578625  0.3648520119481647
  0.7428561423482291  0.7648583021844361  0.3297967693290085
  0.5985051393413365  0.6106022852933056  0.3400796185591330
  0.6665789842061197  0.8214495604414238  0.3708098685506023
  0.5670278787371834  0.8325935927623958  0.3624878430539485
  0.2409992756145305  0.5774167208310087  0.2926968737808002
  0.3461140243354995  0.3682857616378393  0.3303673751725082
  0.4660621262070396  0.4134005932836037  0.3396283779409917
  0.7848935042271283  0.6362140568458827  0.3694133245243058
  0.8606269796856976  0.5953991249161559  0.3580429694279972
 
  0.00000000E+00  0.00000000E+00  0.00000000E+00
  0.00000000E+00  0.00000000E+00  0.00000000E+00
  0.00000000E+00  0.00000000E+00  0.00000000E+00
  0.00000000E+00  0.00000000E+00  0.00000000E+00
  0.00000000E+00  0.00000000E+00  0.00000000E+00
  0.00000000E+00  0.00000000E+00  0.00000000E+00
  0.00000000E+00  0.00000000E+00  0.00000000E+00
  0.00000000E+00  0.00000000E+00  0.00000000E+00
  0.00000000E+00  0.00000000E+00  0.00000000E+00
  0.00000000E+00  0.00000000E+00  0.00000000E+00
  0.00000000E+00  0.00000000E+00  0.00000000E+00
  0.00000000E+00  0.00000000E+00  0.00000000E+00
  0.00000000E+00  0.00000000E+00  0.00000000E+00
  0.00000000E+00  0.00000000E+00  0.00000000E+00
  0.00000000E+00  0.00000000E+00  0.00000000E+00
  0.00000000E+00  0.00000000E+00  0.00000000E+00
  0.00000000E+00  0.00000000E+00  0.00000000E+00
  0.00000000E+00  0.00000000E+00  0.00000000E+00
  0.00000000E+00  0.00000000E+00  0.00000000E+00
  0.00000000E+00  0.00000000E+00  0.00000000E+00
  0.00000000E+00  0.00000000E+00  0.00000000E+00
  0.00000000E+00  0.00000000E+00  0.00000000E+00
  0.00000000E+00  0.00000000E+00  0.00000000E+00
  0.00000000E+00  0.00000000E+00  0.00000000E+00
  0.00000000E+00  0.00000000E+00  0.00000000E+00
  0.00000000E+00  0.00000000E+00  0.00000000E+00
  0.00000000E+00  0.00000000E+00  0.00000000E+00
  0.00000000E+00  0.00000000E+00  0.00000000E+00
  0.00000000E+00  0.00000000E+00  0.00000000E+00
  0.00000000E+00  0.00000000E+00  0.00000000E+00
  0.00000000E+00  0.00000000E+00  0.00000000E+00
  0.00000000E+00  0.00000000E+00  0.00000000E+00
  0.00000000E+00  0.00000000E+00  0.00000000E+00
  0.00000000E+00  0.00000000E+00  0.00000000E+00
  0.00000000E+00  0.00000000E+00  0.00000000E+00
  0.00000000E+00  0.00000000E+00  0.00000000E+00
  0.00000000E+00  0.00000000E+00  0.00000000E+00
  0.00000000E+00  0.00000000E+00  0.00000000E+00
  0.00000000E+00  0.00000000E+00  0.00000000E+00
  0.00000000E+00  0.00000000E+00  0.00000000E+00
  0.00000000E+00  0.00000000E+00  0.00000000E+00
  0.00000000E+00  0.00000000E+00  0.00000000E+00
  0.00000000E+00  0.00000000E+00  0.00000000E+00
  0.00000000E+00  0.00000000E+00  0.00000000E+00
  0.00000000E+00  0.00000000E+00  0.00000000E+00
  0.00000000E+00  0.00000000E+00  0.00000000E+00
  0.00000000E+00  0.00000000E+00  0.00000000E+00
  0.00000000E+00  0.00000000E+00  0.00000000E+00
  0.00000000E+00  0.00000000E+00  0.00000000E+00
  0.00000000E+00  0.00000000E+00  0.00000000E+00
  0.00000000E+00  0.00000000E+00  0.00000000E+00
  0.00000000E+00  0.00000000E+00  0.00000000E+00
  0.00000000E+00  0.00000000E+00  0.00000000E+00
  0.00000000E+00  0.00000000E+00  0.00000000E+00
  0.00000000E+00  0.00000000E+00  0.00000000E+00
  0.00000000E+00  0.00000000E+00  0.00000000E+00
  0.00000000E+00  0.00000000E+00  0.00000000E+00
  0.00000000E+00  0.00000000E+00  0.00000000E+00
  0.00000000E+00  0.00000000E+00  0.00000000E+00
  0.00000000E+00  0.00000000E+00  0.00000000E+00
  0.00000000E+00  0.00000000E+00  0.00000000E+00
  0.00000000E+00  0.00000000E+00  0.00000000E+00
  0.00000000E+00  0.00000000E+00  0.00000000E+00
  0.00000000E+00  0.00000000E+00  0.00000000E+00
  0.00000000E+00  0.00000000E+00  0.00000000E+00
  0.00000000E+00  0.00000000E+00  0.00000000E+00
  0.00000000E+00  0.00000000E+00  0.00000000E+00
  0.00000000E+00  0.00000000E+00  0.00000000E+00
  0.00000000E+00  0.00000000E+00  0.00000000E+00
  0.00000000E+00  0.00000000E+00  0.00000000E+00
  0.00000000E+00  0.00000000E+00  0.00000000E+00
  0.00000000E+00  0.00000000E+00  0.00000000E+00
  0.00000000E+00  0.00000000E+00  0.00000000E+00
  0.00000000E+00  0.00000000E+00  0.00000000E+00
  0.00000000E+00  0.00000000E+00  0.00000000E+00
  0.00000000E+00  0.00000000E+00  0.00000000E+00
  0.00000000E+00  0.00000000E+00  0.00000000E+00
  0.00000000E+00  0.00000000E+00  0.00000000E+00
  0.00000000E+00  0.00000000E+00  0.00000000E+00
  0.00000000E+00  0.00000000E+00  0.00000000E+00
  0.00000000E+00  0.00000000E+00  0.00000000E+00
  0.00000000E+00  0.00000000E+00  0.00000000E+00
  0.00000000E+00  0.00000000E+00  0.00000000E+00
  0.00000000E+00  0.00000000E+00  0.00000000E+00
  0.00000000E+00  0.00000000E+00  0.00000000E+00
  0.00000000E+00  0.00000000E+00  0.00000000E+00
  0.00000000E+00  0.00000000E+00  0.00000000E+00
  0.00000000E+00  0.00000000E+00  0.00000000E+00
  0.00000000E+00  0.00000000E+00  0.00000000E+00
  0.00000000E+00  0.00000000E+00  0.00000000E+00
  0.00000000E+00  0.00000000E+00  0.00000000E+00
  0.00000000E+00  0.00000000E+00  0.00000000E+00
  0.00000000E+00  0.00000000E+00  0.00000000E+00
  0.00000000E+00  0.00000000E+00  0.00000000E+00
  0.00000000E+00  0.00000000E+00  0.00000000E+00
  0.00000000E+00  0.00000000E+00  0.00000000E+00
  0.00000000E+00  0.00000000E+00  0.00000000E+00
  0.00000000E+00  0.00000000E+00  0.00000000E+00
  0.00000000E+00  0.00000000E+00  0.00000000E+00
  0.00000000E+00  0.00000000E+00  0.00000000E+00
  0.00000000E+00  0.00000000E+00  0.00000000E+00
  0.00000000E+00  0.00000000E+00  0.00000000E+00
  0.00000000E+00  0.00000000E+00  0.00000000E+00
  0.00000000E+00  0.00000000E+00  0.00000000E+00
  0.00000000E+00  0.00000000E+00  0.00000000E+00
  0.00000000E+00  0.00000000E+00  0.00000000E+00
  0.00000000E+00  0.00000000E+00  0.00000000E+00
  0.00000000E+00  0.00000000E+00  0.00000000E+00
  0.00000000E+00  0.00000000E+00  0.00000000E+00
  0.00000000E+00  0.00000000E+00  0.00000000E+00
  0.00000000E+00  0.00000000E+00  0.00000000E+00
  0.00000000E+00  0.00000000E+00  0.00000000E+00
  0.00000000E+00  0.00000000E+00  0.00000000E+00
  0.00000000E+00  0.00000000E+00  0.00000000E+00
  0.00000000E+00  0.00000000E+00  0.00000000E+00
  0.00000000E+00  0.00000000E+00  0.00000000E+00
  0.00000000E+00  0.00000000E+00  0.00000000E+00
  0.00000000E+00  0.00000000E+00  0.00000000E+00
  0.00000000E+00  0.00000000E+00  0.00000000E+00
  0.00000000E+00  0.00000000E+00  0.00000000E+00
  0.00000000E+00  0.00000000E+00  0.00000000E+00
  0.00000000E+00  0.00000000E+00  0.00000000E+00
  0.00000000E+00  0.00000000E+00  0.00000000E+00
  0.00000000E+00  0.00000000E+00  0.00000000E+00
  0.00000000E+00  0.00000000E+00  0.00000000E+00
  0.00000000E+00  0.00000000E+00  0.00000000E+00
  0.00000000E+00  0.00000000E+00  0.00000000E+00
  0.00000000E+00  0.00000000E+00  0.00000000E+00
  0.00000000E+00  0.00000000E+00  0.00000000E+00
  0.00000000E+00  0.00000000E+00  0.00000000E+00
  0.00000000E+00  0.00000000E+00  0.00000000E+00
  0.00000000E+00  0.00000000E+00  0.00000000E+00
  0.00000000E+00  0.00000000E+00  0.00000000E+00
  0.00000000E+00  0.00000000E+00  0.00000000E+00
  0.00000000E+00  0.00000000E+00  0.00000000E+00
  0.00000000E+00  0.00000000E+00  0.00000000E+00
  0.00000000E+00  0.00000000E+00  0.00000000E+00
  0.00000000E+00  0.00000000E+00  0.00000000E+00
  0.00000000E+00  0.00000000E+00  0.00000000E+00
  0.00000000E+00  0.00000000E+00  0.00000000E+00
  0.00000000E+00  0.00000000E+00  0.00000000E+00
  0.00000000E+00  0.00000000E+00  0.00000000E+00
  0.00000000E+00  0.00000000E+00  0.00000000E+00
  0.00000000E+00  0.00000000E+00  0.00000000E+00
  0.00000000E+00  0.00000000E+00  0.00000000E+00
  0.00000000E+00  0.00000000E+00  0.00000000E+00
  0.00000000E+00  0.00000000E+00  0.00000000E+00
  0.00000000E+00  0.00000000E+00  0.00000000E+00
  0.00000000E+00  0.00000000E+00  0.00000000E+00
  0.00000000E+00  0.00000000E+00  0.00000000E+00
  0.00000000E+00  0.00000000E+00  0.00000000E+00
  0.00000000E+00  0.00000000E+00  0.00000000E+00
  0.00000000E+00  0.00000000E+00  0.00000000E+00
  0.00000000E+00  0.00000000E+00  0.00000000E+00
  0.00000000E+00  0.00000000E+00  0.00000000E+00
  0.00000000E+00  0.00000000E+00  0.00000000E+00
  0.00000000E+00  0.00000000E+00  0.00000000E+00
  0.00000000E+00  0.00000000E+00  0.00000000E+00
  0.00000000E+00  0.00000000E+00  0.00000000E+00
  0.00000000E+00  0.00000000E+00  0.00000000E+00
  0.00000000E+00  0.00000000E+00  0.00000000E+00
  0.00000000E+00  0.00000000E+00  0.00000000E+00
  0.00000000E+00  0.00000000E+00  0.00000000E+00
  0.00000000E+00  0.00000000E+00  0.00000000E+00
  0.00000000E+00  0.00000000E+00  0.00000000E+00
  0.00000000E+00  0.00000000E+00  0.00000000E+00
  0.00000000E+00  0.00000000E+00  0.00000000E+00
  0.00000000E+00  0.00000000E+00  0.00000000E+00
  0.00000000E+00  0.00000000E+00  0.00000000E+00
  0.00000000E+00  0.00000000E+00  0.00000000E+00
  0.00000000E+00  0.00000000E+00  0.00000000E+00
  0.00000000E+00  0.00000000E+00  0.00000000E+00
  0.00000000E+00  0.00000000E+00  0.00000000E+00
  0.00000000E+00  0.00000000E+00  0.00000000E+00
  0.00000000E+00  0.00000000E+00  0.00000000E+00
  0.00000000E+00  0.00000000E+00  0.00000000E+00
  0.00000000E+00  0.00000000E+00  0.00000000E+00
  0.00000000E+00  0.00000000E+00  0.00000000E+00
  0.00000000E+00  0.00000000E+00  0.00000000E+00
  0.00000000E+00  0.00000000E+00  0.00000000E+00
  0.00000000E+00  0.00000000E+00  0.00000000E+00
  0.00000000E+00  0.00000000E+00  0.00000000E+00
  0.00000000E+00  0.00000000E+00  0.00000000E+00
  0.00000000E+00  0.00000000E+00  0.00000000E+00
  0.00000000E+00  0.00000000E+00  0.00000000E+00
  0.00000000E+00  0.00000000E+00  0.00000000E+00
  0.00000000E+00  0.00000000E+00  0.00000000E+00
  0.00000000E+00  0.00000000E+00  0.00000000E+00
  0.00000000E+00  0.00000000E+00  0.00000000E+00
  0.00000000E+00  0.00000000E+00  0.00000000E+00
  0.00000000E+00  0.00000000E+00  0.00000000E+00
  0.00000000E+00  0.00000000E+00  0.00000000E+00
  0.00000000E+00  0.00000000E+00  0.00000000E+00
  0.00000000E+00  0.00000000E+00  0.00000000E+00
  0.00000000E+00  0.00000000E+00  0.00000000E+00
  0.00000000E+00  0.00000000E+00  0.00000000E+00
  0.00000000E+00  0.00000000E+00  0.00000000E+00
  0.00000000E+00  0.00000000E+00  0.00000000E+00
  0.00000000E+00  0.00000000E+00  0.00000000E+00
  0.00000000E+00  0.00000000E+00  0.00000000E+00
  0.00000000E+00  0.00000000E+00  0.00000000E+00
  0.00000000E+00  0.00000000E+00  0.00000000E+00
  0.00000000E+00  0.00000000E+00  0.00000000E+00
  0.00000000E+00  0.00000000E+00  0.00000000E+00
  0.00000000E+00  0.00000000E+00  0.00000000E+00
  0.00000000E+00  0.00000000E+00  0.00000000E+00
  0.00000000E+00  0.00000000E+00  0.00000000E+00
