INPUT_PARAMETERS
pseudo_dir          /path/to/pseudo_dir
orbital_dir         /path/to/orbital_dir
nbands              80
calculation         driver
symmetry            0

basis_type          lcao
ecutwfc             100
bz                  2
scf_thr             1e-5
scf_ene_thr         1e-5
scf_nmax            100
smearing_method     gauss
smearing_sigma      0.01
mixing_type         broyden
mixing_beta         0.20
mixing_ndim         8
mixing_gg0          1.0

imp_sol             1
eb_k                80
tau                 0.000010798
sigma_k             0.6
nc_k                0.00037

cal_force           1
cal_stress          0

ipi_mode            inet
ipi_host            localhost
ipi_port            19001
