INPUT_PARAMETERS
pseudo_dir          /path/to/pseudo_dir
nbands              80
calculation         driver
symmetry            0

basis_type          pw
ecutwfc             60
scf_thr             1e-5
scf_ene_thr         1e-5
scf_nmax            100
ks_solver           cg
diago_smooth_ethr   1
smearing_method     gauss
smearing_sigma      0.01
mixing_type         broyden
mixing_beta         0.20
mixing_ndim         8
mixing_gg0          1.0

cal_force           1
cal_stress          0

ipi_mode            inet
ipi_host            localhost
ipi_port            19003
